
Value of objective function: 73.00000000

Actual values of the variables:
v1                              0
v2                              0
v3                              0
v4                              1
v5                              1
v6                              1
v7                              1
v8                              1
v9                              0
v10                             0
v11                             0
v12                             1
v14                             0
v15                             0
v16                             0
v17                             1
v18                             0
v19                             1
v20                             1
v21                             1
v22                             1
v24                             0
v25                             0
v26                             1
v27                             0
v28                             1
v29                             1
v30                             1
v32                             1
v33                             1
v34                             1
v35                             0
v36                             0
v37                             0
v39                             1
v40                             1
v41                             1
v42                             0
v43                             0
v44                             1
v47                             0
v49                             1
v50                             1
v48                             0
v46                             0
v31                             0
v45                             0
v13                             0
v38                             0
v23                             0
